c CNF generator v0.9
p cnf 50 50
-49 10 23 0
-24 -44 -36 0
-22 -37 24 0
-47 35 27 0
40 44 -16 0
2 24 20 0
15 24 -27 0
3 48 -30 0
13 21 44 0
-43 -48 -20 0
19 -39 36 0
-4 -38 -20 0
4 26 43 0
4 -44 36 0
-4 -35 26 0
-25 26 12 0
19 35 22 0
-37 -26 20 0
36 11 -20 0
44 -23 8 0
11 -49 -43 0
-23 21 -32 0
-34 -39 -3 0
44 -13 -13 0
31 50 32 0
-24 -37 -43 0
-1 -39 -28 0
-44 12 -47 0
-44 -3 -40 0
-23 -24 32 0
47 46 -21 0
-19 -21 -44 0
14 32 34 0
-37 30 28 0
-11 -39 -49 0
-31 24 -28 0
34 -30 27 0
-26 21 -9 0
-27 4 -13 0
38 3 32 0
18 42 50 0
-34 42 -16 0
-7 23 -18 0
-6 49 -50 0
-19 41 1 0
8 -34 -36 0
-44 49 -14 0
6 42 7 0
-38 15 -5 0
-28 15 -47 0
